g3 1 1 0	# problem unknown
 19 8 1 0 8 	# vars, constraints, objectives, ranges, eqns
 0 1 0 0 0 0	# nonlinear constrs, objs; ccons: lin, nonlin, nd, nzlb
 0 0	# network constraints: nonlinear, linear
 0 19 0 	# nonlinear vars in constraints, objectives, both
 0 0 0 1	# linear network variables; functions; arith, flags
 0 0 0 0 0 	# discrete variables: binary, integer, nonlinear (b,c,o)
 28 19 	# nonzeros in Jacobian, obj. gradient
 0 0	# max name lengths: constraints, variables
 0 0 0 0 0	# common exprs: b,c,o,c1,o1
C0
n0
C1
n0
C2
n0
C3
n0
C4
n0
C5
n0
C6
n0
C7
n0
O0 0
o54
19
o2
n5.0
o5
o0
v0
n-31
n2
o5
o0
v1
n-36
n2
o5
o0
v2
n-20
n2
o2
n3.0000000300000003
o5
o0
v3
n-3
n2
o2
n3.0000000300000003
o5
o0
v4
n-5
n2
o2
n3.0000000300000003
o5
o0
v5
n-3.5
n2
o5
o0
v6
n-4.2
n2
o5
o0
v7
n-0.9
n2
o5
o0
v8
n-3.9
n2
o5
o0
v9
n-2.2
n2
o5
o0
v10
n-22.8
n2
o5
o0
v11
n-6.8
n2
o5
o0
v12
n-19
n2
o5
o0
v13
n-8.5
n2
o2
n3.0000000300000003
o5
o0
v14
n-2.2
n2
o2
n3.0000000300000003
o5
o0
v15
n-2.5
n2
o5
o0
v16
n-10.8
n2
o2
n3.0000000300000003
o5
o0
v17
n-6.5
n2
o2
n3.0000000300000003
o5
o0
v18
n-6.5
n2
x19
0 1
1 1
2 1
3 1
4 1
5 1
6 1
7 1
8 1
9 1
10 1
11 1
12 1
13 1
14 1
15 1
16 1
17 1
18 1
r
4 0.0
4 0.0
4 0.0
4 0.0
4 0.0
4 0.0
4 0.0
4 0.0
b
3
3
3
3
3
3
3
3
3
3
3
3
3
3
3
3
3
3
3
k18
1
3
5
6
7
8
10
11
13
14
16
18
20
22
23
24
26
27
J0 3
0 1
1 -1
8 1
J1 6
1 1
2 -1
3 -1
4 -1
5 -1
6 -1
J2 3
6 1
7 -1
8 -1
J3 4
2 1
9 -1
10 -1
13 1
J4 3
10 1
11 -1
12 -1
J5 3
12 1
13 -1
16 -1
J6 3
11 1
14 -1
15 -1
J7 3
16 1
17 -1
18 -1
G0 19
0 0
1 0
2 0
3 0
4 0
5 0
6 0
7 0
8 0
9 0
10 0
11 0
12 0
13 0
14 0
15 0
16 0
17 0
18 0
